nApps = 222
nRes = 9
nActs = 452
nNetworks = 6

assignmentToResources = [2,3,1,1,1,1,2,3,2,1,1,3,1,3,1,3,2,2,3,2,2,2,2,2,3,1,1,2,2,1,1,2,3,1,2,3,2,2,3,2,3,2,2,1,2,1,1,3,2,2,1,1,2,2,3,1,1,2,2,3,3,1,3,2,1,2,1,1,1,2,2,1,2,1,2,1,3,1,2,1,2,3,1,3,2,3,1,2,1,2,1,3,3,1,2,1,2,1,3,2,5,5,5,6,6,4,4,4,4,4,4,4,4,6,5,5,4,4,4,4,4,6,6,6,6,4,4,6,6,6,4,4,4,4,4,6,5,5,6,6,6,5,5,5,5,5,5,5,5,5,4,4,4,4,4,4,5,5,4,4,4,4,6,6,6,4,4,4,4,5,6,6,6,6,5,5,5,5,5,6,6,5,5,4,5,4,5,5,5,5,5,5,5,5,5,6,4,5,5,5,5,5,5,6,4,4,4,4,6,6,6,4,4,5,5,4,4,4,4,5,5,4,4,4,4,6,4,4,5,5,5,5,5,5,6,6,4,4,4,6,6,6,6,4,4,5,5,5,4,4,5,5,5,7,6,8,4,8,6,7,6,7,5,9,4,8,5,9,5,9,4,9,5,7,4,8,6,8,6,8,5,7,4,9,6,7,5,7,4,9,6,8,4,9,5,9,6,8,4,9,7,7,7,8,7,9,8,9,9,8,8,9,9,8,7,7,8,9,9,8,9,8,8,7,8,9,9,8,7,7,9,8,8,9,8,8,9,9,8,8,8,9,9,9,9,9,7,7,7,7,8,8,9,8,8,9,7,9,8,9,8,8,7,7,8,8,8,9,8,9,8,8,8,8,7,7,9,7,7,8,7,7,9,9,7,8,9,7,7,7,7,9,9,7,7,8,9,9,7,9,9,9,9,7,8,9,8,9,8,7,7,8,9,7,7,8,9,8,9,7,9,8,9,8,8,7,9,8,7,7,7,9,7,9,8,7,9,9,8,7,8,7,7,8,8,9,7,7,8,9,9,7];

processingTimes = [120,128,144,72,88,160,88,120,136,64,144,128,104,136,128,152,120,88,48,136,72,96,64,160,120,128,104,104,104,112,128,56,104,120,64,136,120,56,72,128,112,136,112,128,104,64,80,88,104,128,48,104,80,88,136,168,96,56,72,120,104,128,112,160,120,136,128,168,152,128,152,104,112,120,96,88,168,120,136,48,80,56,72,72,128,56,56,112,120,80,40,104,120,128,120,120,136,56,112,64,3,1000,3,4,4,4,8,3,3,3,1000,8,8,1000,5,3,4,4,3,5,1000,3,3,4,4,4,8,5,3,1000,4,4,200,4,4,3,3,3,3,3,3,3,3,1000,3,1000,1000,4,5,5,3,3,4,4,4,1000,1000,8,4,4,3,1000,1000,3,3,23,3,1000,3,1000,3,3,3,1000,1000,1000,3,4,3,4,4,1000,3,3,4,8,4,4,8,3,4,3,3,3,3,3,1000,3,3,3,500,4,13,4,5,4,4,1000,1000,1000,4,4,4,3,1000,4,8,4,1000,1000,4,3,3,3,6,1000,4,4,3,4,4,3,3,3,1000,4,1000,4,8,8,4,1000,4,4,4,3,4,4,1000,3,4,4,3,3,3,3,3,3,4,4,8,8,13,13,4,4,3,3,4,4,4,4,4,4,4,4,3,3,5,5,7,7,8,8,3,3,7,7,3,3,3,3,8,8,4,4,4,4,4,4,3,1000,3,4,4,4,8,3,3,3,1000,8,8,1000,5,3,4,4,3,5,1000,3,3,4,4,4,8,5,3,1000,4,4,200,4,4,3,3,3,3,3,3,3,3,1000,3,1000,1000,4,5,5,3,3,4,4,4,1000,1000,8,4,4,3,1000,1000,3,3,23,3,1000,3,1000,3,3,3,1000,1000,1000,3,4,3,4,4,1000,3,3,4,8,4,4,8,3,4,3,3,3,3,3,1000,3,3,3,500,4,13,4,5,4,4,1000,1000,1000,4,4,4,3,1000,4,8,4,1000,1000,4,3,3,3,6,1000,4,4,3,4,4,3,3,3,1000,4,1000,4,8,8,4,1000,4,4,4,3,4,4,1000,3,4,4];

periods = [20000,10000,100000,20000,20000,100000,100000,50000,5000,20000,50000,20000,20000,10000,2000,100000,100000,20000,2000,20000,10000,20000,100000,5000,1000,10000,50000,20000,10000,20000,100000,2000,100000,10000,100000,10000,50000,20000,10000,50000,20000,20000,20000,100000,20000,100000,10000,100000,20000,20000,100000,20000,100000,20000,100000,10000,100000,5000,20000,20000,50000,100000,10000,10000,20000,20000,20000,10000,10000,100000,20000,100000,10000,20000,20000,20000,10000,20000,20000,20000,20000,10000,10000,100000,20000,100000,50000,100000,10000,100000,2000,100000,5000,10000,20000,100000,20000,20000,20000,20000,20000,20000,20000,10000,10000,100000,100000,20000,20000,20000,100000,100000,100000,50000,5000,5000,20000,20000,20000,20000,50000,20000,20000,20000,20000,20000,20000,10000,10000,10000,2000,2000,2000,2000,2000,100000,20000,20000,2000,2000,2000,20000,20000,10000,10000,10000,10000,20000,100000,5000,10000,10000,10000,10000,50000,50000,20000,10000,20000,20000,20000,100000,100000,100000,100000,10000,10000,10000,10000,100000,10000,10000,10000,10000,50000,50000,50000,50000,20000,10000,10000,20000,20000,100000,20000,100000,20000,20000,20000,100000,100000,100000,100000,20000,20000,100000,10000,5000,5000,5000,5000,20000,20000,20000,100000,100000,100000,100000,10000,10000,10000,20000,20000,20000,20000,20000,10000,10000,10000,100000,20000,20000,20000,20000,20000,10000,20000,20000,20000,20000,20000,20000,20000,20000,100000,100000,50000,50000,10000,100000,100000,100000,5000,10000,10000,20000,20000,20000,20000,20000,20000,20000,20000,20000,20000,20000,20000,20000,100000,100000,100000,100000,100000,100000,100000,100000,100000,100000,100000,100000,100000,100000,100000,100000,100000,100000,100000,100000,50000,50000,50000,50000,50000,50000,50000,50000,2000,2000,10000,10000,10000,10000,10000,10000,20000,20000,20000,20000,20000,20000,20000,20000,20000,10000,10000,100000,100000,20000,20000,20000,100000,100000,100000,50000,5000,5000,20000,20000,20000,20000,50000,20000,20000,20000,20000,20000,20000,10000,10000,10000,2000,2000,2000,2000,2000,100000,20000,20000,2000,2000,2000,20000,20000,10000,10000,10000,10000,20000,100000,5000,10000,10000,10000,10000,50000,50000,20000,10000,20000,20000,20000,100000,100000,100000,100000,10000,10000,10000,10000,100000,10000,10000,10000,10000,50000,50000,50000,50000,20000,10000,10000,20000,20000,100000,20000,100000,20000,20000,20000,100000,100000,100000,100000,20000,20000,100000,10000,5000,5000,5000,5000,20000,20000,20000,100000,100000,100000,100000,10000,10000,10000,20000,20000,20000,20000,20000,10000,10000,10000,100000,20000,20000,20000,20000,20000,10000,20000,20000,20000,20000,20000,20000,20000,20000,100000,100000,50000,50000,10000,100000,100000,100000,5000,10000,10000,20000,20000,20000,20000,20000,20000,20000];

assignmentToClusters = [1,2,3,4,5,6,7,8,9,10,11,12,13,14,15,7,6,16,17,18,19,20,21,22,23,24,8,25,26,27,28,29,30,31,6,32,33,4,34,8,35,35,36,6,37,38,39,6,40,41,42,43,44,45,6,46,7,47,48,35,8,7,32,32,49,50,35,51,32,52,53,6,54,55,56,57,58,59,60,61,62,32,63,7,64,30,8,7,34,7,29,65,66,67,68,6,69,70,4,4,71,72,73,74,75,76,77,78,79,80,81,82,83,84,85,86,87,88,89,90,91,92,93,94,95,96,97,98,99,100,101,102,103,104,105,106,107,108,109,110,111,112,113,114,115,116,117,118,119,120,121,122,123,124,125,126,127,128,129,130,131,132,133,134,135,136,137,138,139,140,141,142,143,144,145,146,147,148,149,150,151,152,153,154,155,156,157,158,159,160,161,162,163,164,165,166,167,168,169,170,171,172,173,174,175,176,177,178,179,180,181,182,183,184,185,186,187,188,189,190,191,192,193,194,195,196,197,198,199,200,201,202,203,204,205,206,207,208,209,210,211,212,213,214,215,216,217,218,219,220,221,222,4,4,4,4,4,4,6,6,6,6,6,6,6,6,6,6,7,7,7,7,7,7,7,7,7,7,8,8,8,8,8,8,8,8,29,29,32,32,32,32,34,34,35,35,35,35,35,35,71,72,73,74,75,76,77,78,79,80,81,82,83,84,85,86,87,88,89,90,91,92,93,94,95,96,97,98,99,100,101,102,103,104,105,106,107,108,109,110,111,112,113,114,115,116,117,118,119,120,121,122,123,124,125,126,127,128,129,130,131,132,133,134,135,136,137,138,139,140,141,142,143,144,145,146,147,148,149,150,151,152,153,154,155,156,157,158,159,160,161,162,163,164,165,166,167,168,169,170,171,172,173,174,175,176,177,178,179,180,181,182,183,184,185,186,187,188,189,190,191,192,193,194,195,196,197,198,199,200,201,202,203,204,205,206,207,208,209,210,211,212,213,214,215,216,217,218,219,220,221,222];

precedenceAdjList = [[],[],[],[253],[],[71,95],[],[],[],[],[],[],[],[],[],[83,271],[265],[],[],[],[],[],[],[],[],[],[281],[],[],[],[],[],[],[],[],[],[],[255],[293],[279],[295],[297],[],[],[],[],[],[263],[],[],[],[],[],[],[267],[],[273],[],[],[299],[283],[],[81],[291],[],[],[],[],[],[],[],[259,261],[],[],[],[],[],[],[],[],[],[35,289],[],[269],[],[32],[285],[275],[],[277],[287],[],[],[],[],[],[],[],[],[257],[],[],[],[],[],[],[],[],[],[],[],[],[],[],[],[],[],[],[],[],[],[],[],[],[],[],[],[],[],[],[],[],[],[],[],[],[],[],[],[],[],[],[],[],[],[],[],[],[],[],[],[],[],[],[],[],[],[],[],[],[],[],[],[],[],[],[],[],[],[],[],[],[],[],[],[],[],[],[],[],[],[],[],[],[],[],[],[],[],[],[],[],[],[],[],[],[],[],[],[],[],[],[],[],[],[],[],[],[],[],[],[],[],[],[],[],[],[],[],[],[],[],[],[],[],[],[],[],[],[],[],[],[],[],[],[],[],[],[],[],[],[],[],[],[],[],[],[],[],[],[],[],[37],[252],[98],[254],[3],[256],[47],[258],[54],[260],[16],[262],[43],[264],[34],[266],[6],[268],[56],[270],[87],[272],[61],[274],[15],[276],[7],[278],[39],[280],[26],[282],[60],[284],[31],[286],[68],[288],[81],[290],[88],[292],[41],[294],[59],[296],[66],[298],[100],[101],[102],[103],[104],[105],[106],[107],[108],[109],[110],[111],[112],[113],[114],[115],[116],[117],[118],[119],[120],[121],[122],[123],[124],[125],[126],[127],[128],[129],[130],[131],[132],[133],[134],[135],[136],[137],[138],[139],[140],[141],[142],[143],[144],[145],[146],[147],[148],[149],[150],[151],[152],[153],[154],[155],[156],[157],[158],[159],[160],[161],[162],[163],[164],[165],[166],[167],[168],[169],[170],[171],[172],[173],[174],[175],[176],[177],[178],[179],[180],[181],[182],[183],[184],[185],[186],[187],[188],[189],[190],[191],[192],[193],[194],[195],[196],[197],[198],[199],[200],[201],[202],[203],[204],[205],[206],[207],[208],[209],[210],[211],[212],[213],[214],[215],[216],[217],[218],[219],[220],[221],[222],[223],[224],[225],[226],[227],[228],[229],[230],[231],[232],[233],[234],[235],[236],[237],[238],[239],[240],[241],[242],[243],[244],[245],[246],[247],[248],[249],[250],[251]];